32 86 184 132 98 187 114 111 34 
101 27 147 106 33 1 188 36 191 175 
190 5 83 143 176 125 4 117 49 135 19 
118 192 6 2 139 136 189 65 94 
170 44 75 97 167 171 107 76 
30 120 193 72 71 157 99 158 63 
155 178 173 141 61 81 138 137 53 60 
113 66 197 31 169 29 105 92 89 59 196 
20 48 133 152 112 194 85 183 166 67 
104 88 43 37 9 55 108 10 
177 18 13 14 96 64 162 91 109 179 
17 144 180 35 199 7 181 74 68 73 
62 28 160 115 69 195 15 123 163 
161 119 150 22 151 16 130 102 149 172 
45 23 8 126 100 110 41 198 116 
134 182 156 25 51 174 124 200 82 
57 78 54 186 127 87 39 185 
131 12 129 11 70 77 95 84 56 
93 159 38 146 153 90 142 
164 103 80 154 24 121 165 
148 50 40 168 79 52 42 
21 26 47 122 
3 46 128 140 
58 145 

